c Reduced graph for r01 generated by Cyril Grelier
p edge 144 1280
e 1 12
e 1 13
e 1 24
e 1 39
e 1 41
e 1 47
e 1 52
e 1 58
e 1 68
e 1 69
e 1 79
e 1 92
e 1 96
e 1 111
e 1 117
e 1 120
e 1 129
e 1 140
e 2 3
e 2 5
e 2 9
e 2 22
e 2 42
e 2 58
e 2 63
e 2 70
e 2 75
e 2 91
e 2 101
e 2 108
e 2 109
e 2 121
e 2 122
e 2 126
e 2 132
e 2 141
e 2 144
e 3 5
e 3 8
e 3 9
e 3 22
e 3 28
e 3 36
e 3 49
e 3 58
e 3 64
e 3 77
e 3 91
e 3 95
e 3 102
e 3 108
e 3 121
e 3 122
e 3 137
e 4 7
e 4 34
e 4 35
e 4 42
e 4 48
e 4 50
e 4 54
e 4 65
e 4 66
e 4 79
e 4 84
e 4 99
e 4 105
e 4 124
e 4 128
e 5 9
e 5 15
e 5 18
e 5 22
e 5 58
e 5 83
e 5 91
e 5 108
e 5 110
e 5 121
e 5 122
e 5 123
e 6 10
e 6 14
e 6 27
e 6 29
e 6 31
e 6 39
e 6 61
e 6 65
e 6 70
e 6 73
e 6 80
e 6 85
e 6 94
e 6 98
e 6 106
e 6 112
e 7 12
e 7 17
e 7 28
e 7 48
e 7 50
e 7 66
e 7 79
e 7 81
e 7 98
e 7 99
e 7 105
e 7 113
e 7 116
e 7 123
e 7 124
e 8 11
e 8 28
e 8 29
e 8 36
e 8 49
e 8 55
e 8 59
e 8 60
e 8 64
e 8 75
e 8 77
e 8 95
e 8 102
e 8 117
e 8 137
e 9 11
e 9 19
e 9 22
e 9 32
e 9 37
e 9 38
e 9 40
e 9 58
e 9 71
e 9 91
e 9 100
e 9 108
e 9 121
e 9 122
e 9 127
e 10 14
e 10 15
e 10 26
e 10 29
e 10 32
e 10 36
e 10 53
e 10 63
e 10 65
e 10 73
e 10 85
e 10 87
e 10 94
e 10 98
e 10 104
e 10 112
e 10 131
e 11 19
e 11 29
e 11 32
e 11 37
e 11 38
e 11 40
e 11 55
e 11 59
e 11 60
e 11 71
e 11 75
e 11 100
e 11 117
e 11 127
e 12 17
e 12 24
e 12 28
e 12 39
e 12 41
e 12 47
e 12 58
e 12 69
e 12 81
e 12 96
e 12 98
e 12 111
e 12 113
e 12 116
e 12 117
e 12 120
e 12 123
e 13 16
e 13 33
e 13 52
e 13 60
e 13 68
e 13 79
e 13 81
e 13 88
e 13 92
e 13 97
e 13 103
e 13 122
e 13 129
e 13 140
e 13 143
e 14 16
e 14 29
e 14 30
e 14 41
e 14 65
e 14 73
e 14 85
e 14 89
e 14 90
e 14 94
e 14 98
e 14 112
e 14 137
e 14 139
e 14 144
e 15 18
e 15 26
e 15 32
e 15 36
e 15 53
e 15 63
e 15 83
e 15 87
e 15 104
e 15 110
e 15 123
e 15 131
e 16 30
e 16 33
e 16 41
e 16 60
e 16 81
e 16 88
e 16 89
e 16 90
e 16 97
e 16 103
e 16 122
e 16 137
e 16 139
e 16 143
e 16 144
e 17 23
e 17 28
e 17 44
e 17 45
e 17 53
e 17 81
e 17 98
e 17 113
e 17 116
e 17 123
e 17 133
e 17 139
e 18 23
e 18 76
e 18 83
e 18 93
e 18 96
e 18 110
e 18 112
e 18 123
e 18 124
e 18 127
e 18 141
e 19 21
e 19 32
e 19 37
e 19 38
e 19 40
e 19 44
e 19 56
e 19 64
e 19 66
e 19 67
e 19 71
e 19 74
e 19 86
e 19 94
e 19 100
e 19 110
e 19 127
e 19 134
e 19 143
e 20 31
e 20 43
e 20 47
e 20 48
e 20 51
e 20 54
e 20 55
e 20 57
e 20 68
e 20 72
e 20 74
e 20 76
e 20 85
e 20 100
e 20 102
e 20 116
e 20 118
e 20 119
e 20 126
e 20 135
e 20 142
e 21 30
e 21 34
e 21 44
e 21 56
e 21 59
e 21 64
e 21 66
e 21 67
e 21 74
e 21 78
e 21 86
e 21 94
e 21 106
e 21 108
e 21 110
e 21 134
e 21 142
e 21 143
e 22 26
e 22 35
e 22 43
e 22 56
e 22 58
e 22 62
e 22 82
e 22 91
e 22 92
e 22 108
e 22 121
e 22 122
e 23 44
e 23 45
e 23 53
e 23 76
e 23 93
e 23 96
e 23 112
e 23 124
e 23 127
e 23 133
e 23 139
e 23 141
e 24 33
e 24 37
e 24 39
e 24 41
e 24 47
e 24 51
e 24 58
e 24 69
e 24 95
e 24 96
e 24 105
e 24 107
e 24 109
e 24 111
e 24 117
e 24 120
e 24 125
e 24 133
e 25 27
e 25 38
e 25 49
e 25 50
e 25 62
e 25 72
e 25 91
e 25 97
e 25 111
e 25 114
e 25 128
e 25 129
e 25 131
e 25 134
e 25 135
e 25 136
e 26 32
e 26 35
e 26 36
e 26 43
e 26 53
e 26 56
e 26 62
e 26 63
e 26 82
e 26 87
e 26 92
e 26 104
e 26 131
e 27 31
e 27 39
e 27 61
e 27 70
e 27 72
e 27 80
e 27 91
e 27 106
e 27 114
e 27 128
e 27 129
e 27 131
e 27 134
e 27 136
e 28 36
e 28 49
e 28 64
e 28 77
e 28 81
e 28 95
e 28 98
e 28 102
e 28 113
e 28 116
e 28 123
e 28 137
e 29 55
e 29 59
e 29 60
e 29 65
e 29 73
e 29 75
e 29 85
e 29 94
e 29 98
e 29 112
e 29 117
e 30 34
e 30 41
e 30 59
e 30 78
e 30 89
e 30 90
e 30 106
e 30 108
e 30 137
e 30 139
e 30 142
e 30 144
e 31 39
e 31 51
e 31 54
e 31 55
e 31 57
e 31 61
e 31 68
e 31 70
e 31 74
e 31 76
e 31 80
e 31 106
e 31 116
e 31 135
e 32 36
e 32 37
e 32 38
e 32 40
e 32 53
e 32 63
e 32 71
e 32 87
e 32 100
e 32 104
e 32 127
e 32 131
e 33 37
e 33 51
e 33 60
e 33 81
e 33 88
e 33 95
e 33 97
e 33 103
e 33 105
e 33 107
e 33 109
e 33 122
e 33 125
e 33 133
e 33 143
e 34 35
e 34 42
e 34 54
e 34 59
e 34 65
e 34 78
e 34 84
e 34 106
e 34 108
e 34 128
e 34 142
e 35 42
e 35 43
e 35 54
e 35 56
e 35 62
e 35 65
e 35 82
e 35 84
e 35 92
e 35 128
e 36 49
e 36 53
e 36 63
e 36 64
e 36 77
e 36 87
e 36 95
e 36 102
e 36 104
e 36 131
e 36 137
e 37 38
e 37 40
e 37 51
e 37 71
e 37 95
e 37 100
e 37 105
e 37 107
e 37 109
e 37 125
e 37 127
e 37 133
e 38 40
e 38 49
e 38 50
e 38 62
e 38 71
e 38 97
e 38 100
e 38 111
e 38 127
e 38 135
e 39 41
e 39 47
e 39 58
e 39 61
e 39 69
e 39 70
e 39 80
e 39 96
e 39 106
e 39 111
e 39 117
e 39 120
e 40 45
e 40 46
e 40 57
e 40 71
e 40 73
e 40 77
e 40 82
e 40 88
e 40 99
e 40 100
e 40 114
e 40 120
e 40 127
e 40 132
e 40 138
e 41 47
e 41 58
e 41 69
e 41 89
e 41 90
e 41 96
e 41 111
e 41 117
e 41 120
e 41 137
e 41 139
e 41 144
e 42 54
e 42 63
e 42 65
e 42 70
e 42 75
e 42 84
e 42 101
e 42 109
e 42 126
e 42 128
e 42 132
e 42 141
e 42 144
e 43 47
e 43 48
e 43 56
e 43 62
e 43 72
e 43 82
e 43 85
e 43 92
e 43 100
e 43 102
e 43 118
e 43 119
e 43 126
e 43 142
e 44 45
e 44 53
e 44 56
e 44 64
e 44 66
e 44 67
e 44 74
e 44 86
e 44 94
e 44 110
e 44 133
e 44 134
e 44 139
e 44 143
e 45 46
e 45 53
e 45 57
e 45 73
e 45 77
e 45 82
e 45 88
e 45 99
e 45 114
e 45 120
e 45 132
e 45 133
e 45 138
e 45 139
e 46 52
e 46 57
e 46 61
e 46 67
e 46 73
e 46 77
e 46 82
e 46 87
e 46 88
e 46 89
e 46 99
e 46 113
e 46 114
e 46 115
e 46 119
e 46 120
e 46 121
e 46 125
e 46 132
e 46 138
e 47 48
e 47 58
e 47 69
e 47 72
e 47 85
e 47 96
e 47 100
e 47 102
e 47 111
e 47 117
e 47 118
e 47 119
e 47 120
e 47 126
e 47 142
e 48 50
e 48 66
e 48 72
e 48 79
e 48 85
e 48 99
e 48 100
e 48 102
e 48 105
e 48 118
e 48 119
e 48 124
e 48 126
e 48 142
e 49 50
e 49 62
e 49 64
e 49 77
e 49 95
e 49 97
e 49 102
e 49 111
e 49 135
e 49 137
e 50 62
e 50 66
e 50 79
e 50 97
e 50 99
e 50 105
e 50 111
e 50 124
e 50 135
e 51 54
e 51 55
e 51 57
e 51 68
e 51 74
e 51 76
e 51 95
e 51 105
e 51 107
e 51 109
e 51 116
e 51 125
e 51 133
e 51 135
e 52 61
e 52 67
e 52 68
e 52 79
e 52 87
e 52 89
e 52 92
e 52 113
e 52 115
e 52 119
e 52 121
e 52 125
e 52 129
e 52 140
e 53 63
e 53 87
e 53 104
e 53 131
e 53 133
e 53 139
e 54 55
e 54 57
e 54 65
e 54 68
e 54 74
e 54 76
e 54 84
e 54 116
e 54 128
e 54 135
e 55 57
e 55 59
e 55 60
e 55 68
e 55 74
e 55 75
e 55 76
e 55 116
e 55 117
e 55 135
e 56 62
e 56 64
e 56 66
e 56 67
e 56 74
e 56 82
e 56 86
e 56 92
e 56 94
e 56 110
e 56 134
e 56 143
e 57 68
e 57 73
e 57 74
e 57 76
e 57 77
e 57 82
e 57 88
e 57 99
e 57 114
e 57 116
e 57 120
e 57 132
e 57 135
e 57 138
e 58 69
e 58 91
e 58 96
e 58 108
e 58 111
e 58 117
e 58 120
e 58 121
e 58 122
e 59 60
e 59 75
e 59 78
e 59 106
e 59 108
e 59 117
e 59 142
e 60 75
e 60 81
e 60 88
e 60 97
e 60 103
e 60 117
e 60 122
e 60 143
e 61 67
e 61 70
e 61 80
e 61 87
e 61 89
e 61 106
e 61 113
e 61 115
e 61 119
e 61 121
e 61 125
e 62 82
e 62 92
e 62 97
e 62 111
e 62 135
e 63 70
e 63 75
e 63 87
e 63 101
e 63 104
e 63 109
e 63 126
e 63 131
e 63 132
e 63 141
e 63 144
e 64 66
e 64 67
e 64 74
e 64 77
e 64 86
e 64 94
e 64 95
e 64 102
e 64 110
e 64 134
e 64 137
e 64 143
e 65 73
e 65 84
e 65 85
e 65 94
e 65 98
e 65 112
e 65 128
e 66 67
e 66 74
e 66 79
e 66 86
e 66 94
e 66 99
e 66 105
e 66 110
e 66 124
e 66 134
e 66 143
e 67 74
e 67 86
e 67 87
e 67 89
e 67 94
e 67 110
e 67 113
e 67 115
e 67 119
e 67 121
e 67 125
e 67 134
e 67 143
e 68 74
e 68 76
e 68 79
e 68 92
e 68 116
e 68 129
e 68 135
e 68 140
e 69 71
e 69 78
e 69 83
e 69 96
e 69 101
e 69 103
e 69 111
e 69 115
e 69 117
e 69 120
e 69 130
e 69 136
e 70 75
e 70 80
e 70 101
e 70 106
e 70 109
e 70 126
e 70 132
e 70 141
e 70 144
e 71 78
e 71 83
e 71 100
e 71 101
e 71 103
e 71 115
e 71 127
e 71 130
e 71 136
e 72 85
e 72 91
e 72 100
e 72 102
e 72 114
e 72 118
e 72 119
e 72 126
e 72 128
e 72 129
e 72 131
e 72 134
e 72 136
e 72 142
e 73 77
e 73 82
e 73 85
e 73 88
e 73 94
e 73 98
e 73 99
e 73 112
e 73 114
e 73 120
e 73 132
e 73 138
e 74 76
e 74 86
e 74 94
e 74 110
e 74 116
e 74 134
e 74 135
e 74 143
e 75 101
e 75 109
e 75 117
e 75 126
e 75 132
e 75 141
e 75 144
e 76 93
e 76 96
e 76 112
e 76 116
e 76 124
e 76 127
e 76 135
e 76 141
e 77 82
e 77 88
e 77 95
e 77 99
e 77 102
e 77 114
e 77 120
e 77 132
e 77 137
e 77 138
e 78 83
e 78 101
e 78 103
e 78 106
e 78 108
e 78 115
e 78 130
e 78 136
e 78 142
e 79 92
e 79 99
e 79 105
e 79 124
e 79 129
e 79 140
e 80 84
e 80 86
e 80 90
e 80 93
e 80 104
e 80 106
e 80 107
e 80 118
e 80 130
e 80 138
e 80 140
e 81 88
e 81 97
e 81 98
e 81 103
e 81 113
e 81 116
e 81 122
e 81 123
e 81 143
e 82 88
e 82 92
e 82 99
e 82 114
e 82 120
e 82 132
e 82 138
e 83 101
e 83 103
e 83 110
e 83 115
e 83 123
e 83 130
e 83 136
e 84 86
e 84 90
e 84 93
e 84 104
e 84 107
e 84 118
e 84 128
e 84 130
e 84 138
e 84 140
e 85 94
e 85 98
e 85 100
e 85 102
e 85 112
e 85 118
e 85 119
e 85 126
e 85 142
e 86 90
e 86 93
e 86 94
e 86 104
e 86 107
e 86 110
e 86 118
e 86 130
e 86 134
e 86 138
e 86 140
e 86 143
e 87 89
e 87 104
e 87 113
e 87 115
e 87 119
e 87 121
e 87 125
e 87 131
e 88 97
e 88 99
e 88 103
e 88 114
e 88 120
e 88 122
e 88 132
e 88 138
e 88 143
e 89 90
e 89 113
e 89 115
e 89 119
e 89 121
e 89 125
e 89 137
e 89 139
e 89 144
e 90 93
e 90 104
e 90 107
e 90 118
e 90 130
e 90 137
e 90 138
e 90 139
e 90 140
e 90 144
e 91 108
e 91 114
e 91 121
e 91 122
e 91 128
e 91 129
e 91 131
e 91 134
e 91 136
e 92 129
e 92 140
e 93 96
e 93 104
e 93 107
e 93 112
e 93 118
e 93 124
e 93 127
e 93 130
e 93 138
e 93 140
e 93 141
e 94 98
e 94 110
e 94 112
e 94 134
e 94 143
e 95 102
e 95 105
e 95 107
e 95 109
e 95 125
e 95 133
e 95 137
e 96 111
e 96 112
e 96 117
e 96 120
e 96 124
e 96 127
e 96 141
e 97 103
e 97 111
e 97 122
e 97 135
e 97 143
e 98 112
e 98 113
e 98 116
e 98 123
e 99 105
e 99 114
e 99 120
e 99 124
e 99 132
e 99 138
e 100 102
e 100 118
e 100 119
e 100 126
e 100 127
e 100 142
e 101 103
e 101 109
e 101 115
e 101 126
e 101 130
e 101 132
e 101 136
e 101 141
e 101 144
e 102 118
e 102 119
e 102 126
e 102 137
e 102 142
e 103 115
e 103 122
e 103 130
e 103 136
e 103 143
e 104 107
e 104 118
e 104 130
e 104 131
e 104 138
e 104 140
e 105 107
e 105 109
e 105 124
e 105 125
e 105 133
e 106 108
e 106 142
e 107 109
e 107 118
e 107 125
e 107 130
e 107 133
e 107 138
e 107 140
e 108 121
e 108 122
e 108 142
e 109 125
e 109 126
e 109 132
e 109 133
e 109 141
e 109 144
e 110 123
e 110 134
e 110 143
e 111 117
e 111 120
e 111 135
e 112 124
e 112 127
e 112 141
e 113 115
e 113 116
e 113 119
e 113 121
e 113 123
e 113 125
e 114 120
e 114 128
e 114 129
e 114 131
e 114 132
e 114 134
e 114 136
e 114 138
e 115 119
e 115 121
e 115 125
e 115 130
e 115 136
e 116 123
e 116 135
e 117 120
e 118 119
e 118 126
e 118 130
e 118 138
e 118 140
e 118 142
e 119 121
e 119 125
e 119 126
e 119 142
e 120 132
e 120 138
e 121 122
e 121 125
e 122 143
e 124 127
e 124 141
e 125 133
e 126 132
e 126 141
e 126 142
e 126 144
e 127 141
e 128 129
e 128 131
e 128 134
e 128 136
e 129 131
e 129 134
e 129 136
e 129 140
e 130 136
e 130 138
e 130 140
e 131 134
e 131 136
e 132 138
e 132 141
e 132 144
e 133 139
e 134 136
e 134 143
e 137 139
e 137 144
e 138 140
e 139 144
e 141 144
